r = [
0,6,11,11,4,2,9,10,10,7,8,0
];
p = [
0,20,1,24,11,1,11,5,1,22,17,0
];
e = [
0,10,6,16,3,7,13,4,17,7,12,0
];
d = [
0,118,95,115,92,122,114,95,91,109,101,128
];
d_bar = [
0,128,96,127,98,123,120,98,92,120,110,128
];
w = [
0,1,6,1.333333333,0.5,7,2.166666667,1.333333333,17,0.636363636,1.333333333,0
];
